50
99.0
0 49 2.96 5.24
1 48 2.6 5.54
2 47 2.84 5.36
3 46 2.72 5.6
4 45 2.76 5.8
5 44 2.38 5.02
6 43 2.5 5.47
7 42 2.22 5.4
8 41 3.01 5.42
9 40 2.75 5.06
10 39 2.71 5.55
11 38 2.51 4.57
12 37 3.07 5.45
13 36 3.07 5.54
14 35 2.84 5.29
15 34 2.37 5.32
16 33 2.63 5.44
17 32 2.93 5.22
18 31 2.63 4.79
19 30 2.44 5.64
20 29 2.58 5.74
21 28 2.58 5.03
22 27 3.16 5.93
23 26 2.73 4.98
24 25 2.31 5.37
25 24 2.64 5.49
26 23 2.6 5.1
27 22 2.82 4.36
28 21 2.83 4.71
29 20 2.35 5.2
30 19 2.73 5.1
31 18 3.27 5.24
32 17 2.96 5.26
33 16 2.46 5.06
34 15 2.55 5.14
35 14 3.07 5.29
36 13 2.54 4.0
37 12 2.44 3.47
38 11 2.42 3.31
39 10 1.68 4.99
40 9 3.88 4.79
41 8 3.33 4.33
42 7 3.2 3.65
43 6 3.12 4.6
44 5 4.6 5.5
45 4 2.36 0.8
46 3 1.97 0.68
47 2 3.62 1.27
48 1 3.48 1.2
